&GLOBAL
  PROJECT     cp2k 
  RUN_TYPE    ENERGY  
  PRINT_LEVEL MEDIUM    
&END GLOBAL

&FORCE_EVAL
  METHOD          QUICKSTEP   !FIST for MM
  STRESS_TENSOR   ANALYTICAL  !if available
  &DFT
    BASIS_SET_FILE_NAME ./BASIS_MOLOPT
    POTENTIAL_FILE_NAME ./GTH_POTENTIALS
    WFN_RESTART_FILE_NAME new_restart_wavefunction.wfn  
   
    UKS          T
    CHARGE       0
    MULTIPLICITY 49

    &MGRID
       CUTOFF     [Ry] 600
       REL_CUTOFF [Ry] 50 
       NGRIDS          4         
    &END MGRID

    &QS
       METHOD GPW 
    &END QS

    &POISSON		       ! to modify in case of nonperiodic calculations	
       PERIODIC       XYZ 
       POISSON_SOLVER PERIODIC
    &END POISSON

    &SCF                              
      SCF_GUESS     RESTART       ! If it can not find cp2k-RESTART.wfn it will be switched to ATOMIC
      MAX_SCF       50
      EPS_SCF       1.0E-6        ! accuracy of the SCF procedure typically 1.0E-6 - 1.0E-7 (default: 1.0E-5). BC: this does not correspond to the absolute printed energy "change".

      &OUTER_SCF                  ! recompute the preconditioner and repeat the inner SCF cycle 
        MAX_SCF     50
        EPS_SCF     1.0E-6        ! must match the above
      &END

      &OT                         ! Default settings
        PRECONDITIONER FULL_ALL   ! FULL_ALL is the best, use FULL_KINETIC only for very large systems because it's faster
        MINIMIZER      DIIS       ! Default: DIIS. CG is 2x slower but more robust     
      &END OT

      &MIXING                     ! Default settings
        METHOD  DIRECT_P_MIXING   ! direct mixing of old and new densities
        ALPHA   0.4               ! fraction of the new density
        BETA    0.5               ! Kerker damping parameter
      &END MIXING

      &PRINT 
        &RESTART  ON           ! DEFAULT: print the RESTART.wfn file and 3 backups (OFF to save time)
        &END
      &END 
    &END SCF

    &XC
      &XC_FUNCTIONAL 
         &PBE
          PARAMETRIZATION  ORIG                  ! Available: ORIG, PBESOL, REVPBE
         &END
      &END XC_FUNCTIONAL
      &VDW_POTENTIAL                             ! adding Grimme's D3 correction  
         POTENTIAL_TYPE    PAIR_POTENTIAL        ! PAIR_POTENTIAL=Grimme, NON_LOCAL=DF/DF2/VV10 
         &PAIR_POTENTIAL
            PARAMETER_FILE_NAME     /scratch/ongari/0_LIBRARIES/0_cp2k/dftd3.dat
            TYPE                    DFTD3(BJ)                     ! Available: DFTD2, DFTD3, DFTD3(BJ)
            REFERENCE_FUNCTIONAL    PBE                           ! Better to insert the SCALING parameters for other functionals than PBE
         &END
      &END VDW_POTENTIAL
    &END XC

    &PRINT                     ! To print the Band Gap and the energy levels. Also, can be activated to have cube files.
      &E_DENSITY_CUBE OFF
        STRIDE 2 2 2
      &END E_DENSITY_CUBE
      &MO_CUBES OFF
        WRITE_CUBE F
        STRIDE 2 2 2
        NLUMO 1
        NHOMO 1
      &END MO_CUBES                     
      &MULLIKEN  OFF  
      &END
      &HIRSHFELD OFF
      &END
    &END PRINT 

  &END DFT
 
   &SUBSYS
     &CELL
       A     2.6765064608292935E+01    0.0000000000000000E+00    0.0000000000000000E+00
       B     0.0000000000000000E+00    2.6765065179885813E+01    0.0000000000000000E+00
       C     0.0000000000000000E+00    0.0000000000000000E+00    3.8660135199057486E+01
       PERIODIC  XYZ
       MULTIPLE_UNIT_CELL  1 1 1
       SYMMETRY  NONE
     &END CELL
     &COORD
Cu_frm    1.4616273160732089E+00    1.8795470559164539E+01    1.9330068154637711E+01
Cu_frm    2.5303433482610309E+01    7.9695905885400578E+00    1.9330068370663557E+01
Cu_frm    7.9695944964809016E+00    1.4616289840633110E+00    1.9330067974107557E+01
Cu_frm    1.8795469295591378E+01    2.5303437870691372E+01    1.9330067957580692E+01
Cu_frm    1.4829461222473524E+01    5.4215790525029881E+00   -3.4321723142496498E-05
Cu_frm    1.1935596188695083E+01    2.1343504307085755E+01   -1.8298855128052268E-05
Cu_frm    2.1343489422725941E+01    1.4829467822962631E+01   -2.7376429741536746E-05
Cu_frm    5.4215564219441026E+00    1.1935605036133479E+01   -9.3976001544626795E-05
Cu_frm    1.8686161988083041E+00    1.6389759126989638E+01    1.9330068216234430E+01
Cu_frm    2.4896450190528427E+01    1.0375320302276346E+01    1.9330067843615335E+01
Cu_frm    1.0375317616694451E+01    1.8686156222662811E+00    1.9330067870837244E+01
Cu_frm    1.6389753044436254E+01    2.4896448696294918E+01    1.9330067882306139E+01
Cu_frm    1.5190403834140350E+01    3.0031438875773482E+00   -3.3495105350124185E-04
Cu_frm    1.1574660383689814E+01    2.3761921079327120E+01   -1.7178233016407584E-04
Cu_frm    2.3761916136677684E+01    1.5190403406237936E+01   -2.3735226083242784E-04
Cu_frm    3.0031319473694240E+00    1.1574675666107439E+01   -9.2939986329852817E-04
Cu_frm    1.0122618534933576E+01    8.6546191917943691E+00    5.8429881149981862E+00
Cu_frm    1.6642432754755678E+01    1.8110444951802570E+01    5.8429941223959299E+00
Cu_frm    1.8110444204969635E+01    1.0122636299423625E+01    5.8429964857253074E+00
Cu_frm    8.6546168837165105E+00    1.6642415598833978E+01    5.8429882387293990E+00
Cu_frm    1.6642416370757548E+01    1.8110447952873560E+01    3.2817127779323698E+01
Cu_frm    1.0122656485567601E+01    8.6546165029921909E+00    3.2817122732881842E+01
Cu_frm    8.6546212249987988E+00    1.6642442919592188E+01    3.2817121330377510E+01
Cu_frm    1.8110445138646725E+01    1.0122645889870881E+01    3.2817128855021863E+01
Cu_frm    2.3528107477444138E+01    2.2022213532131886E+01    2.5148333673138318E+01
Cu_frm    3.2369541114856295E+00    4.7428515715827722E+00    2.5148334210268988E+01
Cu_frm    4.7428534138694065E+00    2.3528109920519068E+01    2.5148333621934952E+01
Cu_frm    2.2022212615706938E+01    3.2369538340275619E+00    2.5148335717625560E+01
Cu_frm    3.2369538903157844E+00    4.7428510017006786E+00    1.3511799389210625E+01
Cu_frm    2.3528110635141406E+01    2.2022213497976491E+01    1.3511798469777855E+01
Cu_frm    2.2022213409658640E+01    3.2369541065431848E+00    1.3511798330226403E+01
Cu_frm    4.7428501058849477E+00    2.3528109559266628E+01    1.3511797951138982E+01
Cu_frm    9.1087475129594875E+00    7.1985006203164312E+00    7.5390143137406440E+00
Cu_frm    1.7656308528887994E+01    1.9566556739480948E+01    7.5390301718692392E+00
Cu_frm    1.9566562181454124E+01    9.1087542862442703E+00    7.5390258868400037E+00
Cu_frm    7.1984625708014862E+00    1.7656300102014715E+01    7.5389921381425768E+00
Cu_frm    1.7656309556097998E+01    1.9566538553024060E+01    3.1121077725164511E+01
Cu_frm    9.1087643977406145E+00    7.1985367396261148E+00    3.1121058874594848E+01
Cu_frm    7.1985809302698760E+00    1.7656320850392142E+01    3.1121034615756116E+01
Cu_frm    1.9566537428608104E+01    9.1087585052884172E+00    3.1121077435966580E+01
Cu_frm    2.2548261511693482E+01    2.0569005932145000E+01    2.6863369287767970E+01
Cu_frm    4.2168030211545373E+00    6.1960580578332198E+00    2.6863368589050705E+01
Cu_frm    6.1960588204462121E+00    2.2548262229033661E+01    2.6863368235114976E+01
Cu_frm    2.0569006349224310E+01    4.2168034217666612E+00    2.6863368240595605E+01
Cu_frm    4.2168030491993118E+00    6.1960578827372119E+00    1.1796766284691000E+01
Cu_frm    2.2548262058839668E+01    2.0569007500238332E+01    1.1796766177725216E+01
Cu_frm    2.0569006948156616E+01    4.2168038142509392E+00    1.1796767577809264E+01
Cu_frm    6.1960581523992113E+00    2.2548262269373438E+01    1.1796766291258036E+01
 O_frm    3.1954587278573841E+00    1.6719720140646686E+01    1.7897458805324984E+01
 O_frm    2.3569605710618564E+01    1.0045343409021671E+01    1.7897457864931106E+01
 O_frm    1.0045342090619897E+01    3.1954592087824740E+00    1.7897457572271858E+01
 O_frm    1.6719721156669905E+01    2.3569606251382829E+01    1.7897458243374569E+01
 O_frm    2.3569605692922000E+01    1.0045342114906287E+01    2.0762677494576000E+01
 O_frm    3.1954590022379952E+00    1.6719721555437427E+01    2.0762676563477903E+01
 O_frm    1.6719722451819713E+01    2.3569605823468077E+01    2.0762677091641311E+01
 O_frm    1.0045341965399796E+01    3.1954592484109674E+00    2.0762677340411315E+01
 O_frm    1.6513112229315318E+01    3.3203072607507838E+00    3.7235640938714127E+01
 O_frm    1.0251936377234065E+01    2.3444719066476697E+01    3.7235802643831256E+01
 O_frm    2.3444728616536430E+01    1.6513118811869994E+01    3.7235726830593727E+01
 O_frm    3.3201896603873648E+00    1.0252002097470859E+01    3.7235085724968783E+01
 O_frm    1.0251911975148706E+01    2.3444648742561242E+01    1.4240247924558616E+00
 O_frm    1.6513161366287221E+01    3.3204386698579835E+00    1.4238871545829115E+00
 O_frm    3.3205456241967455E+00    1.0251864556237166E+01    1.4233622911799892E+00
 O_frm    2.3444634829226342E+01    1.6513159102752532E+01    1.4239569519430262E+00
 O_frm    2.8200127967669815E+00    1.8966821455352420E+01    1.7898673154151542E+01
 O_frm    2.3945053666032937E+01    7.7982398353454840E+00    1.7898674552151729E+01
 O_frm    7.7982402304472540E+00    2.8200111527836711E+00    1.7898674499929989E+01
 O_frm    1.8966821903081403E+01    2.3945052680232891E+01    1.7898673174075142E+01
 O_frm    2.3945053460156128E+01    7.7982387470366445E+00    2.0761460525324193E+01
 O_frm    2.8200115901979421E+00    1.8966823244404988E+01    2.0761461778972869E+01
 O_frm    1.8966823310284095E+01    2.3945053517190122E+01    2.0761461639480178E+01
 O_frm    7.7982398673527520E+00    2.8200108342625470E+00    2.0761461014230523E+01
 O_frm    1.6207414807450466E+01    5.5773316478898973E+00    3.7255846128432786E+01
 O_frm    1.0557654670699598E+01    2.1187716049590264E+01    3.7255847213869089E+01
 O_frm    2.1187718594532413E+01    1.6207412086441202E+01    3.7255841986804157E+01
 O_frm    5.5772770916072991E+00    1.0557624394653777E+01    3.7255827270786497E+01
 O_frm    1.0557672849188103E+01    2.1187680753608049E+01    1.4042766779026159E+00
 O_frm    1.6207380940877158E+01    5.5773948125215718E+00    1.4042678157304287E+00
 O_frm    5.5774446085067027E+00    1.0557713061708533E+01    1.4042464002722683E+00
 O_frm    2.1187673953711545E+01    1.6207388495044093E+01    1.4042737171890989E+00
 O_frm    4.7581422604487189E+00    2.1742698094757777E+01    1.4362069140917788E+01
 O_frm    2.2006923948795837E+01    5.0223634224172127E+00    1.4362071335350157E+01
 O_frm    5.0223629591163679E+00    4.7581417150287750E+00    1.4362070822231324E+01
 O_frm    2.1742697450460369E+01    2.2006920517103811E+01    1.4362067331893002E+01
 O_frm    2.2006924295206076E+01    5.0223624173631896E+00    2.4298062755159830E+01
 O_frm    4.7581395918283524E+00    2.1742697562479517E+01    2.4298063093591313E+01
 O_frm    2.1742696791830333E+01    2.2006926057078797E+01    2.4298062972445663E+01
 O_frm    5.0223658019737352E+00    4.7581405479925154E+00    2.4298063545510260E+01
 O_frm    1.8208845066411296E+01    8.3576822557755683E+00    3.3730546538938938E+01
 O_frm    8.5562280905137538E+00    1.8407407054080885E+01    3.3730546983755055E+01
 O_frm    1.8407374729002406E+01    1.8208851517126153E+01    3.3730544106660993E+01
 O_frm    8.3576970150581253E+00    8.5562058799268641E+00    3.3730532043576495E+01
 O_frm    8.5562180830923147E+00    1.8407394420148833E+01    4.9295807569024408E+00
 O_frm    1.8208838410625688E+01    8.3576632010180649E+00    4.9295779180640853E+00
 O_frm    8.3576370724621878E+00    8.5562384203910113E+00    4.9295672548164795E+00
 O_frm    1.8407414712975058E+01    1.8208838780809689E+01    4.9295807929061608E+00
 O_frm    6.0900063162952476E+00    2.0813642547015174E+01    1.2757175690278363E+01
 O_frm    2.0675059034442089E+01    5.9514223825243366E+00    1.2757179352747620E+01
 O_frm    5.9514221633857911E+00    6.0900061415156115E+00    1.2757177671684902E+01
 O_frm    2.0813642325975458E+01    2.0675057285379747E+01    1.2757173360217921E+01
 O_frm    2.0675059115019014E+01    5.9514218493523732E+00    2.5902955442808615E+01
 O_frm    6.0900051911562949E+00    2.0813641886995217E+01    2.5902956499207249E+01
 O_frm    2.0813641412523271E+01    2.0675059911003462E+01    2.5902956196799163E+01
 O_frm    5.9514226412436191E+00    6.0900061182214591E+00    2.5902957096787134E+01
 O_frm    1.9470222302484476E+01    7.3733337930617102E+00    3.2102862201384809E+01
 O_frm    7.2948456183618111E+00    1.9391738479344280E+01    3.2102861242442302E+01
 O_frm    1.9391730095352415E+01    1.9470218739664457E+01    3.2102854117285851E+01
 O_frm    7.3733546396465934E+00    7.2948355772641493E+00    3.2102827503373156E+01
 O_frm    7.2948432185122005E+00    1.9391749022816576E+01    6.5572548005197033E+00
 O_frm    1.9470212677137440E+01    7.3733058717187152E+00    6.5572470163710097E+00
 O_frm    7.3732790125081795E+00    7.2948615279027216E+00    6.5572216436466979E+00
 O_frm    1.9391756864385712E+01    1.9470216663376647E+01    6.5572556409191280E+00
 O_frm    7.1468931033008571E+00    1.5899511967782882E+01    8.4615930262898456E+00
 O_frm    1.9618158011208006E+01    1.0865554069349157E+01    8.4616063399980401E+00
 O_frm    1.0865552041091952E+01    7.1469085100714160E+00    8.4616016314630098E+00
 O_frm    1.5899502664172594E+01    1.9618153466238606E+01    8.4616046830554179E+00
 O_frm    1.9618148767404122E+01    1.0865561262628102E+01    3.0198517077656923E+01
 O_frm    7.1469329340087802E+00    1.5899506593112013E+01    3.0198499501260919E+01
 O_frm    1.5899515295456974E+01    1.9618157337860914E+01    3.0198513968992202E+01
 O_frm    1.0865564635449434E+01    7.1469173928766079E+00    3.0198509951301837E+01
 O_frm    2.0587247918387931E+01    2.4552522535956824E+00    2.7760853738626114E+01
 O_frm    6.1778157412056025E+00    2.4309815108686170E+01    2.7760852095687927E+01
 O_frm    2.4309815998667400E+01    2.0587251193532293E+01    2.7760850317971951E+01
 O_frm    2.4552519928398344E+00    6.1778163409225382E+00    2.7760854472921970E+01
 O_frm    6.1778172239945564E+00    2.4309812140945596E+01    1.0899280044888142E+01
 O_frm    2.0587246319016486E+01    2.4552550556557420E+00    1.0899279259040464E+01
 O_frm    2.4552533196196134E+00    6.1778163621101720E+00    1.0899280101248131E+01
 O_frm    2.4309809691004844E+01    2.0587246478708064E+01    1.0899277806089421E+01
 O_frm    8.6157917721475386E+00    1.5018346549096979E+01    6.9450265577814578E+00
 O_frm    1.8149268985896988E+01    1.1746716605504124E+01    6.9450296580588002E+00
 O_frm    1.1746714090598694E+01    8.6157922369556790E+00    6.9450172601969697E+00
 O_frm    1.5018344555134954E+01    1.8149269790400780E+01    6.9450205685837263E+00
 O_frm    1.8149267475392673E+01    1.1746721165482423E+01    3.1715101926723314E+01
 O_frm    8.6157946088606625E+00    1.5018346029657902E+01    3.1715103334265997E+01
 O_frm    1.5018347977970583E+01    1.8149271838130041E+01    3.1715090797126248E+01
 O_frm    1.1746725213038506E+01    8.6157958182073244E+00    3.1715096521719733E+01
 O_frm    2.1932189366792823E+01    1.5520946841159726E+00    2.6153892764345919E+01
 O_frm    4.8328739852099272E+00    2.5212969011893797E+01    2.6153888428032460E+01
 O_frm    2.5212965820284850E+01    2.1932193494114131E+01    2.6153883369239736E+01
 O_frm    1.5520951584215374E+00    4.8328756093743861E+00    2.6153892712112260E+01
 O_frm    4.8328758436756836E+00    2.5212970745270173E+01    1.2506239124488312E+01
 O_frm    2.1932187866741216E+01    1.5520941659047331E+00    1.2506237862978676E+01
 O_frm    1.5520940601074316E+00    4.8328758894700901E+00    1.2506240603456888E+01
 O_frm    2.5212972622879168E+01    2.1932186621182034E+01    1.2506234211123921E+01
 O_frm    9.5082717028039738E+00    1.0254923412324546E+01    6.8133098494581708E+00
 O_frm    1.7256789813982135E+01    1.6510140935599509E+01    6.8133163371789367E+00
 O_frm    1.6510141478884524E+01    9.5082773363454720E+00    6.8133193570988846E+00
 O_frm    1.0254916945269587E+01    1.7256787025923749E+01    6.8133139964611535E+00
 O_frm    1.7256787784264503E+01    1.6510141713295994E+01    3.1846811144166782E+01
 O_frm    9.5082803537176019E+00    1.0254924940766358E+01    3.1846806405158812E+01
 O_frm    1.0254932743539756E+01    1.7256784226703449E+01    3.1846796959300296E+01
 O_frm    1.6510139633191997E+01    9.5082822684673811E+00    3.1846804275845560E+01
 O_frm    2.2971699033353548E+01    2.3569839513077209E+01    2.6211127306417545E+01
 O_frm    3.7933649666126330E+00    3.1952262346744091E+00    2.6211126491961238E+01
 O_frm    3.1952265271514007E+00    2.2971702887159353E+01    2.6211121922838249E+01
 O_frm    2.3569838494446877E+01    3.7933653322892567E+00    2.6211127921400362E+01
 O_frm    3.7933672288377549E+00    3.1952254156171156E+00    1.2449004249628397E+01
 O_frm    2.2971698144837802E+01    2.3569840317318231E+01    1.2449005107338813E+01
 O_frm    2.3569839792537834E+01    3.7933668639922464E+00    1.2449004740486009E+01
 O_frm    3.1952242601983873E+00    2.2971696191692157E+01    1.2449001098063230E+01
 O_frm    8.6895025931640930E+00    8.9086122546883537E+00    8.4659124691825944E+00
 O_frm    1.8075559881062933E+01    1.7856449886107296E+01    8.4659179901242059E+00
 O_frm    1.7856452750670957E+01    8.6895046035002306E+00    8.4659174337550667E+00
 O_frm    8.9085970422148044E+00    1.8075556365840772E+01    8.4659106597545133E+00
 O_frm    1.8075560831999951E+01    1.7856445157233338E+01    3.0194208312390412E+01
 O_frm    8.6895055638381393E+00    8.9086248073665413E+00    3.0194203727569683E+01
 O_frm    8.9086417795238688E+00    1.8075569365698062E+01    3.0194197907344826E+01
 O_frm    1.7856446021755037E+01    8.6895036516664153E+00    3.0194208621803956E+01
 O_frm    2.2076851104275235E+01    2.2230630095901272E+01    2.7831407324972094E+01
 O_frm    4.6882133985441969E+00    4.5344362938216927E+00    2.7831407291367935E+01
 O_frm    4.5344340343232723E+00    2.2076853173821469E+01    2.7831404763623233E+01
 O_frm    2.2230628051244910E+01    4.6882136555982283E+00    2.7831407691323985E+01
 O_frm    4.6882144318419980E+00    4.5344372968448479E+00    1.0828726274520506E+01
 O_frm    2.2076850947985232E+01    2.2230629035553562E+01    1.0828726905947233E+01
 O_frm    2.2230628372198179E+01    4.6882144304931614E+00    1.0828726854010133E+01
 O_frm    4.5344373462584819E+00    2.2076850381280110E+01    1.0828725442882533E+01
 O_frm    3.7085070553031456E+00    7.7508297082381832E+00    1.2894970287449691E+01
 O_frm    2.3056556711216441E+01    1.9014233716652203E+01    1.2894969176635644E+01
 O_frm    1.9014234210108995E+01    3.7085073711938237E+00    1.2894970219679353E+01
 O_frm    7.7508295820497866E+00    2.3056558555301859E+01    1.2894971069256627E+01
 O_frm    2.3056558233501526E+01    1.9014234221760951E+01    2.5765162790775697E+01
 O_frm    3.7085065840320031E+00    7.7508299248535124E+00    2.5765164037288990E+01
 O_frm    7.7508305167276772E+00    2.3056559521708014E+01    2.5765161978350420E+01
 O_frm    1.9014234016904890E+01    3.7085069095764878E+00    2.5765164348792940E+01
 O_frm    1.7111211556373128E+01    2.1116395444891463E+01    3.2236822727999211E+01
 O_frm    9.6538633965304843E+00    5.6486695144369561E+00    3.2236776094109842E+01
 O_frm    5.6486778434271772E+00    1.7111207719293215E+01    3.2236635162359576E+01
 O_frm    2.1116394840712086E+01    9.6538567064827916E+00    3.2236810655596770E+01
 O_frm    9.6538566848060192E+00    5.6486650372143998E+00    6.4232047982578138E+00
 O_frm    1.7111211165123482E+01    2.1116396321688939E+01    6.4232330432174676E+00
 O_frm    2.1116396539310308E+01    9.6538558010330870E+00    6.4232203139361648E+00
 O_frm    5.6486540192301513E+00    1.7111200313726208E+01    6.4230856276204875E+00
 O_frm    2.7441800687840430E+00    6.3911657490122593E+00    1.4447198429510426E+01
 O_frm    2.4020882736042047E+01    2.0373896400436088E+01    1.4447196062584558E+01
 O_frm    2.0373897687058115E+01    2.7441813916369706E+00    1.4447197224334294E+01
 O_frm    6.3911646015399102E+00    2.4020884299799683E+01    1.4447197908626553E+01
 O_frm    2.4020883250079031E+01    2.0373898234800585E+01    2.4212935254685149E+01
 O_frm    2.7441803126971349E+00    6.3911654381732239E+00    2.4212935411042796E+01
 O_frm    6.3911655593828938E+00    2.4020884773247882E+01    2.4212934173994132E+01
 O_frm    2.0373897113180831E+01    2.7441808752423444E+00    2.4212936454013811E+01
 O_frm    1.6057428529838287E+01    1.9753744076020457E+01    3.3729322815932065E+01
 O_frm    1.0707631189457191E+01    7.0113074937548747E+00    3.3729307389524742E+01
 O_frm    7.0112835675459291E+00    1.6057477224190649E+01    3.3729257169801087E+01
 O_frm    1.9753746201436002E+01    1.0707631847373046E+01    3.3729320790188865E+01
 O_frm    1.0707657316685191E+01    7.0113456399930678E+00    4.9307718660772624E+00
 O_frm    1.6057414703718237E+01    1.9753722630905603E+01    4.9307813985617166E+00
 O_frm    1.9753717259965786E+01    1.0707654965373028E+01    4.9307778239704936E+00
 O_frm    7.0113656774104909E+00    1.6057371528040424E+01    4.9307317620777011E+00
 O_frm    2.6686379064848349E+01    8.3180857666583918E+00    1.7959075877858801E+01
 O_frm    7.8685300055680224E-02    1.8446965018486065E+01    1.7959072403129518E+01
 O_frm    1.8446964254498955E+01    2.6686380088529368E+01    1.7959072460387517E+01
 O_frm    8.3180918342610664E+00    7.8685239518064443E-02    1.7959074212643301E+01
 O_frm    7.8684626420791215E-02    1.8446963722154106E+01    2.0701062950919756E+01
 O_frm    2.6686378625920625E+01    8.3180858066554606E+00    2.0701058757578551E+01
 O_frm    8.3180931048751194E+00    7.8685266896709821E-02    2.0701060315057553E+01
 O_frm    1.8446963984619480E+01    2.6686380236503684E+01    2.0701062413753224E+01
 O_frm    1.3302042265668250E+01    2.1688763912203974E+01    3.7262848762203369E+01
 O_frm    1.3463010045013231E+01    5.0762830547008164E+00    3.7262846093311687E+01
 O_frm    5.0761288551129340E+00    1.3302096441439796E+01    3.7262846819346393E+01
 O_frm    2.1688775137679070E+01    1.3463017807273317E+01    3.7262847088111300E+01
 O_frm    1.3463051873227208E+01    5.0764466430371940E+00    1.3972888824817060E+00
 O_frm    1.3302019658954070E+01    2.1688679162523059E+01    1.3972860280675361E+00
 O_frm    2.1688652141299332E+01    1.3463049059090494E+01    1.3972858287704542E+00
 O_frm    5.0765777999022825E+00    1.3301978590943028E+01    1.3972872630903193E+00
 O_frm    2.6316268630929219E+01    1.0568531464819715E+01    1.7958845166786713E+01
 O_frm    4.4880027485807383E-01    1.6196522984410336E+01    1.7958848473049933E+01
 O_frm    1.6196522713509630E+01    2.6316265014364564E+01    1.7958848123712094E+01
 O_frm    1.0568535640223915E+01    4.4879757001085779E-01    1.7958846239726576E+01
 O_frm    4.4880079165948333E-01    1.6196522467274459E+01    2.0701287297302660E+01
 O_frm    2.6316268324367591E+01    1.0568531182498127E+01    2.0701289932163700E+01
 O_frm    1.0568536115432414E+01    4.4879868314127780E-01    2.0701288829365769E+01
 O_frm    1.6196523014264660E+01    2.6316264667748882E+01    2.0701287278037903E+01
 O_frm    1.3000516488935492E+01    2.3949676244626087E+01    3.7310943338988629E+01
 O_frm    1.3764574319733999E+01    2.8153663774549780E+00    3.7310751448441920E+01
 O_frm    2.8152161408663363E+00    1.3000274080186159E+01    3.7309798369980591E+01
 O_frm    2.3949688001736536E+01    1.3764563530360610E+01    3.7310864759073901E+01
 O_frm    1.3764347231698745E+01    2.8155268324942635E+00    1.3483931336036150E+00
 O_frm    1.3000632649248303E+01    2.3949593090539466E+01    1.3486818925845165E+00
 O_frm    2.3949569387794764E+01    1.3764411226535026E+01    1.3485936689325657E+00
 O_frm    2.8156547375738410E+00    1.3000900135537796E+01    1.3475866318514116E+00
 N_frm    4.5936528453413601E+00    1.4159521752896852E+01    1.4478245649330511E+01
 N_frm    2.2171412826716221E+01    1.2605541916224754E+01    1.4478244420310620E+01
 N_frm    1.2605541124060622E+01    4.5936529749113175E+00    1.4478244651547927E+01
 N_frm    1.4159522354517589E+01    2.2171412278410653E+01    1.4478243678293815E+01
 N_frm    2.2171411782221877E+01    1.2605538725555959E+01    2.4181892312661116E+01
 N_frm    4.5936517266076740E+00    1.4159521119799832E+01    2.4181888811068127E+01
 N_frm    1.4159523990661830E+01    2.2171414800533391E+01    2.4181888368451478E+01
 N_frm    1.2605541066503390E+01    4.5936526654598806E+00    2.4181889959259770E+01
 N_frm    1.7975385427559960E+01    7.5727391448097192E-01    3.3782789411314241E+01
 N_frm    8.7896663480519379E+00    2.6007791395606262E+01    3.3782786444140470E+01
 N_frm    2.6007772368586735E+01    1.7975435971029945E+01    3.3782773991960077E+01
 N_frm    7.5728512252362035E-01    8.7896680518429910E+00    3.3782781596106055E+01
 N_frm    8.7897067754647402E+00    2.6007814267632156E+01    4.8773317639522356E+00
 N_frm    1.7975357037954236E+01    7.5725280941907624E-01    4.8773315888283175E+00
 N_frm    7.5723795582415043E-01    8.7897209653576187E+00    4.8773226260648954E+00
 N_frm    2.6007831838293331E+01    1.7975325652455357E+01    4.8773207173746984E+00
 N_frm    6.0614693808475755E+00    1.3935959173884621E+01    1.2582016594366429E+01
 N_frm    2.0703593512571768E+01    1.2829106183525171E+01    1.2582016777756632E+01
 N_frm    1.2829104778783648E+01    6.0614718019751175E+00    1.2582016439116323E+01
 N_frm    1.3935958721953130E+01    2.0703593892890623E+01    1.2582016019964936E+01
 N_frm    2.0703590906619215E+01    1.2829104276205650E+01    2.6078119862557301E+01
 N_frm    6.0614683882437355E+00    1.3935957708629250E+01    2.6078119134762542E+01
 N_frm    1.3935957077903479E+01    2.0703596274695769E+01    2.6078116143781031E+01
 N_frm    1.2829107243139751E+01    6.0614715299333231E+00    2.6078118717915871E+01
 N_frm    1.9456628722647189E+01    5.4448470754697620E-01    3.1894211684649161E+01
 N_frm    7.3084254236483321E+00    2.6220573333903722E+01    3.1894204752630440E+01
 N_frm    2.6220546970096759E+01    1.9456665499629786E+01    3.1894180808780007E+01
 N_frm    5.4448006245056813E-01    7.3084270520624965E+00    3.1894204054700978E+01
 N_frm    7.3084557752854611E+00    2.6220597093476286E+01    6.7659029535285846E+00
 N_frm    1.9456609802869089E+01    5.4447389229271437E-01    6.7659025769820111E+00
 N_frm    5.4447360732400796E-01    7.3084583453078524E+00    6.7658888030104212E+00
 N_frm    2.6220621146910386E+01    1.9456589243642981E+01    6.7658807121914757E+00
 N_frm    4.7110649559152193E+00    1.2077064850704039E+01    1.3282531254892652E+01
 N_frm    2.2054000262214011E+01    1.4687998255056986E+01    1.3282532265714478E+01
 N_frm    1.4687996758181683E+01    4.7110638447329700E+00    1.3282530152817893E+01
 N_frm    1.2077065529918288E+01    2.2054000015242849E+01    1.3282530124283035E+01
 N_frm    2.2054001687487744E+01    1.4687994452454783E+01    2.5377607241762469E+01
 N_frm    4.7110648487963847E+00    1.2077063203653054E+01    2.5377602306626606E+01
 N_frm    1.2077064583249205E+01    2.2054001348319982E+01    2.5377598541969974E+01
 N_frm    1.4687998602058688E+01    4.7110640475323970E+00    2.5377601992733791E+01
 N_frm    1.8095647788432519E+01    2.5446751138153701E+01    3.2577440830640093E+01
 N_frm    8.6694042397150124E+00    1.3183082169900879E+00    3.2577430965324794E+01
 N_frm    1.3182833725550813E+00    1.8095697850565728E+01    3.2577408642534145E+01
 N_frm    2.5446754748785654E+01    8.6694122165987988E+00    3.2577441538740310E+01
 N_frm    8.6694392465019163E+00    1.3183358755448942E+00    6.0826803358883588E+00
 N_frm    1.8095627558066219E+01    2.5446733887275574E+01    6.0826849448600369E+00
 N_frm    2.5446724442754473E+01    8.6694380336089889E+00    6.0826818440066246E+00
 N_frm    1.3183613508131842E+00    1.8095600232103294E+01    6.0826571747042655E+00
 C_frm    5.5105210525771975E+00    1.4618703479729010E+01    1.3617679410402726E+01
 C_frm    2.1254544098835737E+01    1.2146360466789680E+01    1.3617679038204214E+01
 C_frm    1.2146358957841173E+01    5.5105216378985702E+00    1.3617678968294658E+01
 C_frm    1.4618703892259946E+01    2.1254544052010129E+01    1.3617678103462968E+01
 C_frm    2.1254541404186853E+01    1.2146357980787750E+01    2.5042457639117618E+01
 C_frm    5.5105204660880212E+00    1.4618702766741563E+01    2.5042456164455963E+01
 C_frm    1.4618703647721974E+01    2.1254545198165069E+01    2.5042454356006871E+01
 C_frm    1.2146360082310530E+01    5.5105218392060520E+00    2.5042456666641947E+01
 C_frm    1.8898063635142730E+01    1.2218494136390312E+00    3.2931869997539529E+01
 C_frm    7.8669903990629875E+00    2.5543215191941670E+01    3.2931866505629785E+01
 C_frm    2.5543191923089186E+01    1.8898100855789131E+01    3.2931845811763857E+01
 C_frm    1.2218541407141583E+00    7.8669917454482317E+00    3.2931857083501370E+01
 C_frm    7.8670239966036508E+00    2.5543236058884165E+01    5.7282441794769241E+00
 C_frm    1.8898039821290187E+01    1.2218326922229072E+00    5.7282423976746433E+00
 C_frm    1.2218226556003438E+00    7.8670333740973817E+00    5.7282255351369447E+00
 C_frm    2.5543255740219852E+01    1.8898017538970386E+01    5.7282266177915853E+00
 C_frm    5.6184715521489181E+00    1.2680573321088623E+01    1.2477317103960601E+01
 C_frm    2.1146592651870964E+01    1.4084491857694321E+01    1.2477317793485753E+01
 C_frm    1.4084489189470426E+01    5.6184721434151825E+00    1.2477316832107556E+01
 C_frm    1.2680573083917578E+01    2.1146592496478657E+01    1.2477316330269771E+01
 C_frm    2.1146592664788511E+01    1.4084489085488151E+01    2.6182819550840581E+01
 C_frm    5.6184702289987287E+00    1.2680571872197520E+01    2.6182817326631699E+01
 C_frm    1.2680571860665145E+01    2.1146596683501631E+01    2.6182813048316568E+01