&GLOBAL
  PROJECT     cp2k 
  RUN_TYPE    GEO_OPT   
  PRINT_LEVEL MEDIUM    
&END GLOBAL

&FORCE_EVAL
  METHOD          QUICKSTEP   !FIST for MM
  STRESS_TENSOR   ANALYTICAL  !if available
  &DFT
    BASIS_SET_FILE_NAME ./BASIS_MOLOPT
    POTENTIAL_FILE_NAME ./GTH_POTENTIALS  
   
    UKS          T
    CHARGE       0
    MULTIPLICITY 2

    &MGRID
       CUTOFF     [Ry] 400
       REL_CUTOFF [Ry] 50 
       NGRIDS          4         
    &END MGRID

    &QS
       METHOD GPW 
    &END QS

    &POISSON		       ! to modify in case of nonperiodic calculations	
       PERIODIC       XYZ 
       POISSON_SOLVER PERIODIC
    &END POISSON

    &SCF                              
      SCF_GUESS     ATOMIC       ! If it can not find cp2k-RESTART.wfn it will be switched to ATOMIC
      MAX_SCF       50
      EPS_SCF       1.0E-6        ! accuracy of the SCF procedure typically 1.0E-6 - 1.0E-7 (default: 1.0E-5). BC: this does not correspond to the absolute printed energy "change".
      MAX_ITER_LUMO 10000         ! for computing the Band gap

      &OUTER_SCF                  ! recompute the preconditioner and repeat the inner SCF cycle 
        MAX_SCF     10
        EPS_SCF     1.0E-6        ! must match the above
      &END

      &OT                         ! Default settings
        PRECONDITIONER FULL_ALL   ! FULL_ALL is the best, use FULL_KINETIC only for very large systems because it's faster
        MINIMIZER      DIIS       ! Default: DIIS. CG is 2x slower but more robust     
      &END OT

      &MIXING                     ! Default settings
        METHOD  DIRECT_P_MIXING   ! direct mixing of old and new densities
        ALPHA   0.4               ! fraction of the new density
        BETA    0.5               ! Kerker damping parameter
      &END MIXING

      &PRINT 
        &RESTART  ON           ! DEFAULT: print the RESTART.wfn file and 3 backups (OFF to save time)
        &END
      &END 
    &END SCF

    &XC
      &XC_FUNCTIONAL 
         &PBE
          PARAMETRIZATION  ORIG                  ! Available: ORIG, PBESOL, REVPBE
         &END
      &END XC_FUNCTIONAL
      &VDW_POTENTIAL                             ! adding Grimme's D3 correction  
         POTENTIAL_TYPE    PAIR_POTENTIAL        ! PAIR_POTENTIAL=Grimme, NON_LOCAL=DF/DF2/VV10 
         &PAIR_POTENTIAL
            PARAMETER_FILE_NAME     /scratch/ongari/0_LIBRARIES/0_cp2k/dftd3.dat
            TYPE                    DFTD3(BJ)                     ! Available: DFTD2, DFTD3, DFTD3(BJ)
            REFERENCE_FUNCTIONAL    PBE                           ! Better to insert the SCALING parameters for other functionals than PBE
         &END
      &END VDW_POTENTIAL
    &END XC

    &PRINT                     ! To print the Band Gap and the energy levels. Also, can be activated to have cube files.
      &E_DENSITY_CUBE OFF
        STRIDE 2 2 2
      &END E_DENSITY_CUBE
      &MO_CUBES OFF
        WRITE_CUBE F
        STRIDE 2 2 2
        NLUMO 1
        NHOMO 1
      &END MO_CUBES                     
      &MULLIKEN  OFF  
      &END
      &HIRSHFELD OFF
      &END
    &END PRINT 

  &END DFT
 
  &SUBSYS
    &CELL
      PERIODIC XYZ
      MULTIPLE_UNIT_CELL 1 1 1
      SYMMETRY NONE
      A [angstrom] 15.00000  0.00000  0.00000
      B [angstrom]  0.00000 15.00000  0.00000
      C [angstrom]  0.00000  0.00000 15.00000
    &END CELL
 
    &COORD
      SCALED .FALSE.
 Cu   5.67405   7.67175   7.03830 
  O   6.28605   8.55555   4.11855 
  H   6.11565   8.50890   3.14430 
  O   5.04105   7.36290  10.32975 
  H   5.50605   7.28580  11.20065 
  O   8.35905   7.21740   9.25710 
  C   8.75325   7.47795   8.15820 
  O   9.14745   7.73850   7.05915 
    &END COORD
 
    &KIND H
      BASIS_SET DZVP-MOLOPT-SR-GTH
      POTENTIAL GTH-PBE
    &END KIND
    &KIND H_GHOST
      BASIS_SET DZVP-MOLOPT-SR-GTH
      GHOST
    &END KIND
 
    &KIND C
      BASIS_SET DZVP-MOLOPT-SR-GTH
      POTENTIAL GTH-PBE
    &END KIND
    &KIND C_GHOST
      BASIS_SET DZVP-MOLOPT-SR-GTH
      GHOST
    &END KIND
 
    &KIND O
      BASIS_SET DZVP-MOLOPT-SR-GTH
      POTENTIAL GTH-PBE
    &END KIND
    &KIND O_GHOST
      BASIS_SET DZVP-MOLOPT-SR-GTH
      GHOST
    &END KIND
 
    &KIND Cu
      BASIS_SET DZVP-MOLOPT-SR-GTH
      POTENTIAL GTH-PBE
    &END KIND
    &KIND Cu_GHOST
      BASIS_SET DZVP-MOLOPT-SR-GTH
      GHOST
    &END KIND
 
  &END SUBSYS

&END FORCE_EVAL 

&MOTION                     

 &GEO_OPT                   
   OPTIMIZER         BFGS     !default, Good choice for 'small' systems (use LBFGS or CG for large systems)
   MAX_ITER          200      !default
   MAX_DR           [angstrom] 0.001    !default: 0.0030[bohr]  Convergence criterium for the maximum geometry change
   RMS_DR           [angstrom] 0.0005   !default: 0.0015[bohr]  Convergence criterium for the root mean square (RMS) geometry change   
   MAX_FORCE [bohr^-1*hartree] 0.00045  !default: 0.00045
   RMS_FORCE [bohr^-1*hartree] 0.0003   !default: 0.0003 
   &BFGS
   &END
 &END
  &PRINT

   &TRAJECTORY                 
     FORMAT XYZ 
     &EACH                    
       GEO_OPT   1
     &END EACH
   &END TRAJECTORY

   &CELL OFF
   &END CELL

   &VELOCITIES OFF
   &END VELOCITIES

   &FORCES OFF
   &END FORCES

   &RESTART
     BACKUP_COPIES 3
     &EACH
       GEO_OPT  1
     &END EACH
   &END RESTART

   &RESTART_HISTORY            
     &EACH
       MD       1000  
       GEO_OPT  1000 
       CELL_OPT 1000                
     &END EACH
   &END RESTART_HISTORY
  &END PRINT
&END MOTION
