 # Version information for this restart file 
 # current date 2018-09-28 11:55:16.727
 # current working dir /home/ongari/x_corso_bonella/4_cp2k/5_water-Ne/1_geoopt
 # Program compiled at                              Thu Jul 5 11:15:01 CEST 2018
 # Program compiled on                                                      f016
 # Program compiled for                      linux-rhel7-x86_E5v4_Mellanox-intel
 # Source code revision number                                         svn:18091
 &GLOBAL
   PRINT_LEVEL  MEDIUM
   PROJECT_NAME cp2k
   RUN_TYPE  GEO_OPT
 &END GLOBAL
 &MOTION
   &GEO_OPT
     OPTIMIZER  BFGS
     MAX_ITER  200
     MAX_DR     1.8897261328856430E-03
     MAX_FORCE     4.4999999999999999E-04
     RMS_DR     9.4486306644282151E-04
     RMS_FORCE     2.9999999999999997E-04
     STEP_START_VAL  60
     &BFGS
     &END BFGS
   &END GEO_OPT
   &CELL_OPT
     OPTIMIZER  BFGS
     MAX_ITER  500
     MAX_DR     1.8897261328856430E-03
     MAX_FORCE     4.4999999999999999E-04
     RMS_DR     9.4486306644282151E-04
     RMS_FORCE     2.9999999999999997E-04
     TYPE  DIRECT_CELL_OPT
     EXTERNAL_PRESSURE     0.0000000000000000E+00
     KEEP_ANGLES  F
     KEEP_SYMMETRY  F
     PRESSURE_TOLERANCE     1.0000000000000000E+02
     &BFGS
     &END BFGS
   &END CELL_OPT
   &MD
     ENSEMBLE  NVT
     STEPS  1000
     TIMESTEP     9.9999999999999989E-01
     TEMPERATURE     3.0000000000000000E+02
     &THERMOSTAT
       TYPE  CSVR
       &CSVR
         TIMECON     9.9999999999999986E+01
       &END CSVR
     &END THERMOSTAT
   &END MD
   &PRINT
     &TRAJECTORY  SILENT
       FORMAT  XMOL
       &EACH
         MD  1
         GEO_OPT  1
         CELL_OPT  1
       &END EACH
     &END TRAJECTORY
     &CELL  OFF
     &END CELL
     &VELOCITIES  OFF
     &END VELOCITIES
     &FORCES  OFF
     &END FORCES
     &RESTART  SILENT
       BACKUP_COPIES  3
       &EACH
         MD  1
         GEO_OPT  1
         CELL_OPT  1
       &END EACH
     &END RESTART
     &RESTART_HISTORY  SILENT
       &EACH
         MD  1000
         GEO_OPT  1000
         CELL_OPT  1000
       &END EACH
     &END RESTART_HISTORY
   &END PRINT
 &END MOTION
 &FORCE_EVAL
   METHOD  QS
   STRESS_TENSOR  ANALYTICAL
   &DFT
     BASIS_SET_FILE_NAME ./BASIS_MOLOPT
     POTENTIAL_FILE_NAME ./GTH_POTENTIALS
     UKS  F
     MULTIPLICITY  1
     CHARGE  0
     &SCF
       MAX_ITER_LUMO  10000
       MAX_SCF  20
       EPS_SCF     9.9999999999999995E-07
       SCF_GUESS  ATOMIC
       &OT  T
         MINIMIZER  DIIS
         PRECONDITIONER  FULL_ALL
       &END OT
       &OUTER_SCF  T
         EPS_SCF     9.9999999999999995E-08
         MAX_SCF  20
       &END OUTER_SCF
       &MIXING  T
         METHOD  DIRECT_P_MIXING
         ALPHA     4.0000000000000002E-01
         BETA     5.0000000000000000E-01
       &END MIXING
       &PRINT
         &RESTART  ON
         &END RESTART
       &END PRINT
     &END SCF
     &QS
       METHOD  GPW
     &END QS
     &MGRID
       NGRIDS  4
       CUTOFF     3.0000000000000000E+02
       REL_CUTOFF     5.0000000000000000E+01
     &END MGRID
     &XC
       DENSITY_CUTOFF     1.0000000000000000E-10
       GRADIENT_CUTOFF     1.0000000000000000E-10
       TAU_CUTOFF     1.0000000000000000E-10
       &XC_FUNCTIONAL  NO_SHORTCUT
         &PBE  T
           PARAMETRIZATION  ORIG
         &END PBE
       &END XC_FUNCTIONAL
       &VDW_POTENTIAL
         POTENTIAL_TYPE  PAIR_POTENTIAL
         &PAIR_POTENTIAL
           TYPE  DFTD3(BJ)
           PARAMETER_FILE_NAME /scratch/ongari/0_LIBRARIES/0_cp2k/dftd3.dat
           REFERENCE_FUNCTIONAL PBE
         &END PAIR_POTENTIAL
       &END VDW_POTENTIAL
     &END XC
     &POISSON
       POISSON_SOLVER  PERIODIC
       PERIODIC  XYZ
     &END POISSON
     &PRINT
       &MO_CUBES  SILENT
         STRIDE  2 2 2
         WRITE_CUBE  F
         NLUMO  1
         NHOMO  1
       &END MO_CUBES
       &E_DENSITY_CUBE  OFF
         STRIDE  2 2 2
       &END E_DENSITY_CUBE
       &MULLIKEN  ON
       &END MULLIKEN
       &HIRSHFELD  ON
       &END HIRSHFELD
     &END PRINT
   &END DFT
   &SUBSYS
     &CELL
       A     1.0000000000000002E+01    0.0000000000000000E+00    0.0000000000000000E+00
       B     0.0000000000000000E+00    1.0000000000000002E+01    0.0000000000000000E+00
       C     0.0000000000000000E+00    0.0000000000000000E+00    1.0000000000000002E+01
       PERIODIC  XYZ
       MULTIPLE_UNIT_CELL  1 1 1
       SYMMETRY  NONE
     &END CELL
     &COORD
O    3.8894196430059744E+00    5.4677655587916112E+00    4.9984641639363687E+00
H    4.5900398611773392E+00    5.7725665515187794E+00    4.4007961281938739E+00
H    3.3432577032276436E+00    6.2567549498311097E+00    5.1403549340425805E+00
Ne    3.5647449608538282E+00    2.9209145739778717E+00    5.9724464897363703E+00
       SCALED  F
     &END COORD
     &KIND H
       BASIS_SET DZVP-MOLOPT-SR-GTH
       POTENTIAL GTH-PBE
       &POTENTIAL
 1
  0.2000000000000000E+00 2 -0.4178900440000000E+01  0.7244633100000000E+00
 0
         # Potential name:  GTH-PBE  for symbol:  H
         # Potential read from the potential filename: ./GTH_POTENTIALS
       &END POTENTIAL
     &END KIND
     &KIND O
       BASIS_SET DZVP-MOLOPT-SR-GTH
       POTENTIAL GTH-PBE
       &POTENTIAL
 2 4
  0.2445543000000000E+00 2 -0.1666721480000000E+02  0.2487311320000000E+01
 2
  0.2209559200000000E+00 1  0.1833745811000000E+02
  0.2113324700000000E+00 0
         # Potential name:  GTH-PBE  for symbol:  O
         # Potential read from the potential filename: ./GTH_POTENTIALS
       &END POTENTIAL
     &END KIND
     &KIND Ne
       BASIS_SET DZVP-MOLOPT-SR-GTH
       POTENTIAL GTH-PBE
       &POTENTIAL
 2 6
  0.1900000000000000E+00 2 -0.2712015973000000E+02  0.4360449620000000E+01
 2
  0.1760593800000000E+00 2  0.2817737082000000E+02  0.8336560100000000E+00
 -0.1076245280000000E+01
  0.1954745200000000E+00 1 -0.2362936000000000E+00
         # Potential name:  GTH-PBE  for symbol:  NE
         # Potential read from the potential filename: ./GTH_POTENTIALS
       &END POTENTIAL
     &END KIND
     &TOPOLOGY
       NUMBER_OF_ATOMS  4
       MULTIPLE_UNIT_CELL  1 1 1
     &END TOPOLOGY
   &END SUBSYS
 &END FORCE_EVAL
