&GLOBAL
  PROJECT     cp2k 
  RUN_TYPE    ENERGY   
  PRINT_LEVEL MEDIUM    
&END GLOBAL

&FORCE_EVAL
  METHOD          QUICKSTEP   !FIST for MM
  STRESS_TENSOR   ANALYTICAL  !if available
  &DFT
    BASIS_SET_FILE_NAME ./BASIS_MOLOPT
    POTENTIAL_FILE_NAME ./GTH_POTENTIALS
    WFN_RESTART_FILE_NAME new_restart_wavefunction.wfn  
   
    UKS          T
    CHARGE       0
    MULTIPLICITY 2

    &MGRID
       CUTOFF     [Ry] 400
       REL_CUTOFF [Ry] 50 
       NGRIDS          4         
    &END MGRID

    &QS
       METHOD GPW 
    &END QS

    &POISSON		       ! to modify in case of nonperiodic calculations	
       PERIODIC       XYZ 
       POISSON_SOLVER PERIODIC
    &END POISSON

    &SCF                              
      SCF_GUESS     RESTART       ! If it can not find cp2k-RESTART.wfn it will be switched to ATOMIC
      MAX_SCF       50
      EPS_SCF       1.0E-6        ! accuracy of the SCF procedure typically 1.0E-6 - 1.0E-7 (default: 1.0E-5). BC: this does not correspond to the absolute printed energy "change".
      MAX_ITER_LUMO 10000         ! for computing the Band gap

      &OUTER_SCF                  ! recompute the preconditioner and repeat the inner SCF cycle 
        MAX_SCF     10
        EPS_SCF     1.0E-6        ! must match the above
      &END

      &OT                         ! Default settings
        PRECONDITIONER FULL_ALL   ! FULL_ALL is the best, use FULL_KINETIC only for very large systems because it's faster
        MINIMIZER      DIIS       ! Default: DIIS. CG is 2x slower but more robust     
      &END OT

      &MIXING                     ! Default settings
        METHOD  DIRECT_P_MIXING   ! direct mixing of old and new densities
        ALPHA   0.4               ! fraction of the new density
        BETA    0.5               ! Kerker damping parameter
      &END MIXING

      &PRINT 
        &RESTART  ON           ! DEFAULT: print the RESTART.wfn file and 3 backups (OFF to save time)
        &END
      &END 
    &END SCF

    &XC
      &XC_FUNCTIONAL 
         &PBE
          PARAMETRIZATION  ORIG                  ! Available: ORIG, PBESOL, REVPBE
         &END
      &END XC_FUNCTIONAL
      &VDW_POTENTIAL                             ! adding Grimme's D3 correction  
         POTENTIAL_TYPE    PAIR_POTENTIAL        ! PAIR_POTENTIAL=Grimme, NON_LOCAL=DF/DF2/VV10 
         &PAIR_POTENTIAL
            PARAMETER_FILE_NAME     /scratch/ongari/0_LIBRARIES/0_cp2k/dftd3.dat
            TYPE                    DFTD3(BJ)                     ! Available: DFTD2, DFTD3, DFTD3(BJ)
            REFERENCE_FUNCTIONAL    PBE                           ! Better to insert the SCALING parameters for other functionals than PBE
         &END
      &END VDW_POTENTIAL
    &END XC

    &PRINT                     ! To print the Band Gap and the energy levels. Also, can be activated to have cube files.
      &E_DENSITY_CUBE OFF
        STRIDE 2 2 2
      &END E_DENSITY_CUBE
      &MO_CUBES OFF
        WRITE_CUBE F
        STRIDE 2 2 2
        NLUMO 1
        NHOMO 1
      &END MO_CUBES                     
      &MULLIKEN  OFF  
      &END
      &HIRSHFELD OFF
      &END
    &END PRINT 

  &END DFT
 
  &SUBSYS
    &CELL
      PERIODIC XYZ
      MULTIPLE_UNIT_CELL 1 1 1
      SYMMETRY NONE
      A [angstrom] 15.00000  0.00000  0.00000
      B [angstrom]  0.00000 15.00000  0.00000
      C [angstrom]  0.00000  0.00000 15.00000
    &END CELL
 
    &COORD
      SCALED .FALSE.
Cu    5.5165900155456118E+00    7.9357252953078303E+00    6.9927714379353310E+00
O    6.0067360666940948E+00    8.8282832704937118E+00    5.5445886084468237E+00
H    6.9679737367323007E+00    8.7380506758766607E+00    5.4069589618317533E+00
O    5.1538965668799444E+00    7.1087877795584467E+00    8.5148621542758232E+00
H    4.2227244911558746E+00    7.1937493054709387E+00    8.7872741756343764E+00
O    8.9070192881773878E+00    7.2662070629805156E+00    9.2166710681734454E+00
C    8.7905297785383318E+00    7.5758553221504776E+00    8.0906162141068378E+00
O    8.6751840646454230E+00    7.8883153485253503E+00    6.9591263171205506E+00
    &END COORD
 
    &KIND H
      BASIS_SET DZVP-MOLOPT-SR-GTH
      POTENTIAL GTH-PBE
    &END KIND
    &KIND H_GHOST
      BASIS_SET DZVP-MOLOPT-SR-GTH
      GHOST
    &END KIND
 
    &KIND C
      BASIS_SET DZVP-MOLOPT-SR-GTH
      POTENTIAL GTH-PBE
    &END KIND
    &KIND C_GHOST
      BASIS_SET DZVP-MOLOPT-SR-GTH
      GHOST
    &END KIND
 
    &KIND O
      BASIS_SET DZVP-MOLOPT-SR-GTH
      POTENTIAL GTH-PBE
    &END KIND
    &KIND O_GHOST
      BASIS_SET DZVP-MOLOPT-SR-GTH
      GHOST
    &END KIND
 
    &KIND Cu
      BASIS_SET DZVP-MOLOPT-SR-GTH
      POTENTIAL GTH-PBE
    &END KIND
    &KIND Cu_GHOST
      BASIS_SET DZVP-MOLOPT-SR-GTH
      GHOST
    &END KIND
 
  &END SUBSYS

&END FORCE_EVAL 
