 # Version information for this restart file 
 # current date 2018-10-01 15:01:50.273
 # current working dir /scratch/ongari/proj41_MOF74_cp2k/co2-inter/Zn-MOF74_CO2
 # Program compiled at                              Thu Jul 5 10:57:58 CEST 2018
 # Program compiled on                                                      g005
 # Program compiled for                      linux-rhel7-x86_S6g1_Mellanox-intel
 # Source code revision number                                         svn:18091
 &GLOBAL
   PRINT_LEVEL  MEDIUM
   PROJECT_NAME cp2k
   RUN_TYPE  GEO_OPT
 &END GLOBAL
 &MOTION
   &GEO_OPT
     OPTIMIZER  BFGS
     MAX_ITER  200
     MAX_DR     1.8897261328856430E-03
     MAX_FORCE     4.4999999999999999E-04
     RMS_DR     9.4486306644282151E-04
     RMS_FORCE     2.9999999999999997E-04
     STEP_START_VAL  17
     &BFGS
     &END BFGS
   &END GEO_OPT
   &CONSTRAINT
     &FIXED_ATOMS
       COMPONENTS_TO_FIX  XYZ
       LIST  4..57
     &END FIXED_ATOMS
   &END CONSTRAINT
   &PRINT
     &TRAJECTORY  SILENT
       FORMAT  DCD_ALIGNED_CELL
       &EACH
         GEO_OPT  1
       &END EACH
     &END TRAJECTORY
     &CELL  OFF
     &END CELL
     &VELOCITIES  OFF
     &END VELOCITIES
     &FORCES  OFF
     &END FORCES
     &RESTART  SILENT
       BACKUP_COPIES  3
       &EACH
         GEO_OPT  1
       &END EACH
     &END RESTART
     &RESTART_HISTORY  SILENT
       &EACH
         MD  1000
         GEO_OPT  1000
         CELL_OPT  1000
       &END EACH
     &END RESTART_HISTORY
   &END PRINT
 &END MOTION
 &FORCE_EVAL
   METHOD  QS
   STRESS_TENSOR  ANALYTICAL
   &DFT
     BASIS_SET_FILE_NAME ./BASIS_MOLOPT
     POTENTIAL_FILE_NAME ./GTH_POTENTIALS
     UKS  F
     MULTIPLICITY  1
     CHARGE  0
     &SCF
       MAX_ITER_LUMO  10000
       MAX_SCF  20
       EPS_SCF     9.9999999999999995E-07
       SCF_GUESS  ATOMIC
       &OT  T
         MINIMIZER  DIIS
         PRECONDITIONER  FULL_ALL
       &END OT
       &OUTER_SCF  T
         EPS_SCF     9.9999999999999995E-07
         MAX_SCF  20
       &END OUTER_SCF
       &MIXING  T
         METHOD  DIRECT_P_MIXING
         ALPHA     4.0000000000000002E-01
         BETA     5.0000000000000000E-01
       &END MIXING
       &PRINT
         &RESTART  ON
         &END RESTART
       &END PRINT
     &END SCF
     &QS
       METHOD  GPW
     &END QS
     &MGRID
       NGRIDS  4
       CUTOFF     4.0000000000000000E+02
       REL_CUTOFF     5.0000000000000000E+01
     &END MGRID
     &XC
       DENSITY_CUTOFF     1.0000000000000000E-10
       GRADIENT_CUTOFF     1.0000000000000000E-10
       TAU_CUTOFF     1.0000000000000000E-10
       &XC_FUNCTIONAL  NO_SHORTCUT
         &PBE  T
           PARAMETRIZATION  ORIG
         &END PBE
       &END XC_FUNCTIONAL
       &VDW_POTENTIAL
         POTENTIAL_TYPE  PAIR_POTENTIAL
         &PAIR_POTENTIAL
           TYPE  DFTD3(BJ)
           PARAMETER_FILE_NAME /scratch/ongari/0_LIBRARIES/0_cp2k/dftd3.dat
           REFERENCE_FUNCTIONAL PBE
         &END PAIR_POTENTIAL
       &END VDW_POTENTIAL
     &END XC
     &POISSON
       POISSON_SOLVER  PERIODIC
       PERIODIC  XYZ
     &END POISSON
     &PRINT
       &MO_CUBES  OFF
         STRIDE  2 2 2
         WRITE_CUBE  F
         NLUMO  1
         NHOMO  1
       &END MO_CUBES
       &E_DENSITY_CUBE  OFF
         STRIDE  2 2 2
       &END E_DENSITY_CUBE
       &MULLIKEN  OFF
       &END MULLIKEN
       &HIRSHFELD  OFF
       &END HIRSHFELD
     &END PRINT
   &END DFT
   &SUBSYS
     &CELL
       A     6.9990100000000002E+00    0.0000000000000000E+00    0.0000000000000000E+00
       B    -2.3339699999999999E+00    1.5064170000000003E+01    0.0000000000000000E+00
       C    -2.3333300000000006E+00   -7.5318699999999996E+00    1.3046300000000000E+01
       PERIODIC  XYZ
       MULTIPLE_UNIT_CELL  1 1 1
       SYMMETRY  NONE
     &END CELL
     &COORD
O   -8.9294504080933290E+00    3.0226301057004585E+00    4.0059024318228671E+00
C   -8.7307814063580924E+00    1.8844717729643248E+00    4.2218237838560890E+00
O    5.4711418513494383E+00    7.4265138062049751E-01    4.4191256105422845E+00
C    6.4632000000000001E-01   -2.0121400000000000E+00    7.9548500000000004E+00
C   -3.1720000000000004E-01   -2.8800800000000000E+00    7.2191700000000001E+00
C    5.3192300000000010E+00   -2.5153799999999999E+00    7.0005199999999999E+00
C    4.5120199999999997E+00   -3.4205200000000002E+00    6.3029299999999999E+00
C    2.9789900000000000E+00    1.6498699999999999E+00    7.3261500000000002E+00
C    2.0155099999999999E+00    2.7210800000000002E+00    6.9420700000000002E+00
C    6.5287000000000006E-01    2.7279399999999998E+00    7.3675100000000002E+00
C   -1.5445999999999999E-01    3.7846799999999998E+00    6.9322800000000004E+00
C   -1.6871000000000000E+00    3.6330000000000007E-01    1.0812120000000002E+01
C   -2.6506600000000002E+00    1.6031999999999999E-01    1.1931630000000000E+01
C    2.9857200000000002E+00   -2.1146000000000001E-01    1.1724970000000001E+01
C    2.1784400000000002E+00   -3.6292000000000008E-01    1.2857780000000002E+01
C    1.6856000000000002E+00    9.5451100000000011E+00    5.0915800000000004E+00
C    2.6490600000000004E+00    1.0413050000000000E+01    5.8272599999999999E+00
C   -2.9873799999999999E+00    1.0048350000000001E+01    6.0459200000000006E+00
C   -2.1801400000000002E+00    1.0953340000000003E+01    6.7435000000000009E+00
C   -6.4713000000000009E-01    5.8830999999999998E+00    5.7205400000000006E+00
C    3.1636999999999998E-01    4.8117400000000004E+00    6.1046300000000002E+00
C    1.6790300000000000E+00    4.8049600000000003E+00    5.6793199999999997E+00
C    2.4862900000000003E+00    3.7482100000000003E+00    6.1145399999999999E+00
C    4.0189800000000000E+00    7.1693000000000007E+00    2.2347000000000001E+00
C    4.9824999999999999E+00    7.3723500000000008E+00    1.1150700000000000E+00
C   -6.5388999999999997E-01    7.7441300000000002E+00    1.3214600000000003E+00
C    1.5344000000000002E-01    7.8955099999999998E+00    1.8878000000000000E-01
H    3.4703100000000004E+00   -3.1578800000000000E+00    6.1232800000000003E+00
H   -1.1962100000000000E+00    3.8088600000000006E+00    7.2496999999999998E+00
H    1.1366900000000000E+00   -6.4981000000000000E-01    1.2720150000000000E+01
H   -1.1384300000000003E+00    1.0690700000000000E+01    6.9231499999999997E+00
H    3.5281000000000002E+00    3.7239499999999999E+00    5.7969900000000001E+00
H    1.1951400000000001E+00    8.1824800000000000E+00    3.2655000000000001E-01
O    1.9105000000000003E-01   -9.1426000000000007E-01    8.4430499999999995E+00
O    1.8646300000000002E+00   -2.3701400000000001E+00    8.0729199999999999E+00
O    4.7571099999999999E+00   -1.3478200000000002E+00    7.4186500000000013E+00
O    2.5240000000000000E+00    6.7801999999999996E-01    8.0328700000000008E+00
O    4.1974900000000002E+00    1.7267699999999999E+00    6.9570700000000008E+00
O    9.0859999999999996E-02    1.7820700000000000E+00    8.1695899999999995E+00
O   -2.1421000000000001E+00    2.3696000000000000E-01    9.6169499999999992E+00
O   -4.6870000000000001E-01    6.4455000000000007E-01    1.1063129999999999E+01
O    2.4238400000000002E+00   -4.3323000000000006E-01    1.0504619999999999E+01
O    2.1408000000000005E+00    8.4469999999999992E+00    4.6035199999999996E+00
O    4.6722000000000002E-01    9.9028900000000011E+00    4.9736399999999996E+00
O   -2.4252600000000002E+00    8.8805700000000005E+00    5.6279100000000000E+00
O   -1.9209999999999999E-01    6.8546500000000004E+00    5.0138199999999999E+00
O   -1.8656299999999999E+00    5.8062000000000005E+00    6.0896200000000000E+00
O    2.2410000000000001E+00    5.7508999999999997E+00    4.8771000000000004E+00
O    4.4739500000000003E+00    7.2955600000000009E+00    3.4294799999999999E+00
O    2.8005300000000006E+00    6.8881199999999998E+00    1.9835600000000000E+00
O   -9.1980000000000020E-02    7.9657500000000008E+00    2.5418099999999999E+00
Zn   -1.3893700000000000E+00    4.8670000000000008E-01    7.7445500000000012E+00
Zn    9.4354000000000005E-01    5.8246000000000009E-01    9.5954300000000003E+00
Zn    3.2766799999999998E+00   -1.0682100000000001E+00    8.7530300000000025E+00
Zn    3.7212500000000004E+00    7.0461200000000002E+00    5.3021500000000010E+00
Zn    1.3883700000000003E+00    6.9502100000000002E+00    3.4512700000000005E+00
Zn   -9.4482000000000010E-01    8.6009500000000010E+00    4.2935400000000010E+00
       SCALED  F
     &END COORD
     &KIND H
       BASIS_SET DZVP-MOLOPT-SR-GTH
       POTENTIAL GTH-PBE
       &POTENTIAL
 1
  0.2000000000000000E+00 2 -0.4178900440000000E+01  0.7244633100000000E+00
 0
         # Potential name:  GTH-PBE  for symbol:  H
         # Potential read from the potential filename: ./GTH_POTENTIALS
       &END POTENTIAL
     &END KIND
     &KIND H_GHOST
       BASIS_SET DZVP-MOLOPT-SR-GTH
       GHOST  T
     &END KIND
     &KIND C
       BASIS_SET DZVP-MOLOPT-SR-GTH
       POTENTIAL GTH-PBE
       &POTENTIAL
 2 2
  0.3384712400000000E+00 2 -0.8803673979999999E+01  0.1339210850000000E+01
 2
  0.3025757500000000E+00 1  0.9622486650000001E+01
  0.2915069400000000E+00 0
         # Potential name:  GTH-PBE  for symbol:  C
         # Potential read from the potential filename: ./GTH_POTENTIALS
       &END POTENTIAL
     &END KIND
     &KIND C_GHOST
       BASIS_SET DZVP-MOLOPT-SR-GTH
       GHOST  T
     &END KIND
     &KIND O
       BASIS_SET DZVP-MOLOPT-SR-GTH
       POTENTIAL GTH-PBE
       &POTENTIAL
 2 4
  0.2445543000000000E+00 2 -0.1666721480000000E+02  0.2487311320000000E+01
 2
  0.2209559200000000E+00 1  0.1833745811000000E+02
  0.2113324700000000E+00 0
         # Potential name:  GTH-PBE  for symbol:  O
         # Potential read from the potential filename: ./GTH_POTENTIALS
       &END POTENTIAL
     &END KIND
     &KIND O_GHOST
       BASIS_SET DZVP-MOLOPT-SR-GTH
       GHOST  T
     &END KIND
     &KIND Zn
       BASIS_SET DZVP-MOLOPT-SR-GTH
       MAGNETIZATION     0.0000000000000000E+00
       POTENTIAL GTH-PBE
       &POTENTIAL
 2 0 10
  0.5100000000000000E+00 0
 3
  0.4003164400000000E+00 3  0.1153004133000000E+02 -0.8791898150000000E+01  0.3145086440000000E+01
  0.1646577518000000E+02 -0.8120578269999999E+01
  0.6445509180000000E+01
  0.5431823300000000E+00 2  0.2597195120000000E+01 -0.5942627500000000E+00
  0.7031411700000000E+00
  0.2509588500000000E+00 1 -0.1446695795000000E+02
         # Potential name:  GTH-PBE  for symbol:  ZN
         # Potential read from the potential filename: ./GTH_POTENTIALS
       &END POTENTIAL
     &END KIND
     &KIND Zn_GHOST
       BASIS_SET DZVP-MOLOPT-SR-GTH
       GHOST  T
     &END KIND
     &TOPOLOGY
       NUMBER_OF_ATOMS  57
       MULTIPLE_UNIT_CELL  1 1 1
     &END TOPOLOGY
   &END SUBSYS
 &END FORCE_EVAL
